NAME : p16
COMMENT : ""
TYPE : MDVRP
VEHICLES : 20
DIMENSION : 164
EDGE_WEIGHT_TYPE : EUC_2D
CAPACITY : 60
VEHICLES_MAX_DISTANCE : 200
NODE_COORD_SECTION
1      0      0
2      110    0
3      110    110
4      0      110
5      -10    -10
6      -10    0
7      -10    10
8      0      -10
9      0      10
10     10     -10
11     10     0
12     10     10
13     -20    -20
14     -20    0
15     -20    20
16     0      -20
17     0      20
18     20     -20
19     20     0
20     20     20
21     -30    -30
22     -30    0
23     -30    30
24     0      -30
25     0      30
26     30     -30
27     30     0
28     30     30
29     -40    -40
30     -40    0
31     -40    40
32     0      -40
33     0      40
34     40     -40
35     40     0
36     40     40
37     -50    -50
38     -50    0
39     -50    50
40     0      -50
41     0      50
42     50     -50
43     50     0
44     50     50
45     100    -10
46     100    0
47     100    10
48     110    -10
49     110    10
50     120    -10
51     120    0
52     120    10
53     90     -20
54     90     0
55     90     20
56     110    -20
57     110    20
58     130    -20
59     130    0
60     130    20
61     80     -30
62     80     0
63     80     30
64     110    -30
65     110    30
66     140    -30
67     140    0
68     140    30
69     70     -40
70     70     0
71     70     40
72     110    -40
73     110    40
74     150    -40
75     150    0
76     150    40
77     60     -50
78     60     0
79     60     50
80     110    -50
81     110    50
82     160    -50
83     160    0
84     160    50
85     100    100
86     100    110
87     100    120
88     110    100
89     110    120
90     120    100
91     120    110
92     120    120
93     90     90
94     90     110
95     90     130
96     110    90
97     110    130
98     130    90
99     130    110
100    130    130
101    80     80
102    80     110
103    80     140
104    110    80
105    110    140
106    140    80
107    140    110
108    140    140
109    70     70
110    70     110
111    70     150
112    110    70
113    110    150
114    150    70
115    150    110
116    150    150
117    60     60
118    60     110
119    60     160
120    110    60
121    110    160
122    160    60
123    160    110
124    160    160
125    -10    100
126    -10    110
127    -10    120
128    0      100
129    0      120
130    10     100
131    10     110
132    10     120
133    -20    90
134    -20    110
135    -20    130
136    0      90
137    0      130
138    20     90
139    20     110
140    20     130
141    -30    80
142    -30    110
143    -30    140
144    0      80
145    0      140
146    30     80
147    30     110
148    30     140
149    -40    70
150    -40    110
151    -40    150
152    0      70
153    0      150
154    40     70
155    40     110
156    40     150
157    -50    60
158    -50    110
159    -50    160
160    0      60
161    0      160
162    50     60
163    50     110
164    50     160
DEMAND_SECTION
1      0
2      0
3      0
4      0
5      12
6      12
7      12
8      12
9      12
10     12
11     12
12     12
13     8
14     8
15     8
16     8
17     8
18     8
19     8
20     8
21     4
22     4
23     4
24     4
25     4
26     4
27     4
28     4
29     2
30     2
31     2
32     2
33     2
34     2
35     2
36     2
37     1
38     1
39     1
40     1
41     1
42     1
43     1
44     1
45     12
46     12
47     12
48     12
49     12
50     12
51     12
52     12
53     8
54     8
55     8
56     8
57     8
58     8
59     8
60     8
61     4
62     4
63     4
64     4
65     4
66     4
67     4
68     4
69     2
70     2
71     2
72     2
73     2
74     2
75     2
76     2
77     1
78     1
79     1
80     1
81     1
82     1
83     1
84     1
85     12
86     12
87     12
88     12
89     12
90     12
91     12
92     12
93     8
94     8
95     8
96     8
97     8
98     8
99     8
100    8
101    4
102    4
103    4
104    4
105    4
106    4
107    4
108    4
109    2
110    2
111    2
112    2
113    2
114    2
115    2
116    2
117    1
118    1
119    1
120    1
121    1
122    1
123    1
124    1
125    12
126    12
127    12
128    12
129    12
130    12
131    12
132    12
133    8
134    8
135    8
136    8
137    8
138    8
139    8
140    8
141    4
142    4
143    4
144    4
145    4
146    4
147    4
148    4
149    2
150    2
151    2
152    2
153    2
154    2
155    2
156    2
157    1
158    1
159    1
160    1
161    1
162    1
163    1
164    1
VEHICLES_DEPOT_SECTION
1      1
2      1
3      1
4      1
5      1
6      2
7      2
8      2
9      2
10     2
11     3
12     3
13     3
14     3
15     3
16     4
17     4
18     4
19     4
20     4
DEPOT_SECTION
1
2
3
4
EOF
